conv md

cell
22.60000 22.6000  22.6000  90.000000  90.000000  90.000000

Species
Mn core Mn6+3  0.0000
Ga core Ga3+3  0.0000
As core As3+3  0.0000
# the charge 2.4301 produces enormous reduction of the cell
# therefore, the charge 0.0000 is used at the moment

#library dreiding_paper
#library dreiding
library uff4mof

parallel
super 1 1 1
integrator leapfrog verlet
ensemble nvt 0.1
temperature 90
equil 20 ps
produ 10 ps
timestep 0.0002 ps
sample 0.001 ps
iterations 5
output history movie 10 GaMnAs_ideal.history

fractional    512
Mn      core        0.00000    0.00000     0.00000
As      core       -0.06250   -0.06250     0.06250
As      core       -0.06250    0.06250    -0.06250
As      core        0.06250   -0.06250    -0.06250
As      core        0.06250    0.06250     0.06250
Ga      core       -0.12500   -0.12500     0.00000
Ga      core       -0.12500    0.00000    -0.12500
Ga      core        0.00000   -0.12500    -0.12500
Ga      core       -0.12500    0.12500     0.00000
Ga      core       -0.12500    0.00000     0.12500
Ga      core        0.12500   -0.12500     0.00000
Ga      core        0.00000   -0.12500     0.12500
Ga      core        0.12500    0.00000    -0.12500
Ga      core        0.00000    0.12500    -0.12500
Ga      core        0.12500    0.12500     0.00000
Ga      core        0.12500    0.00000     0.12500
Ga      core        0.00000    0.12500     0.12500
As      core       -0.06250   -0.06250    -0.18750
As      core       -0.06250   -0.18750    -0.06250
As      core       -0.18750   -0.06250    -0.06250
As      core       -0.18750    0.06250     0.06250
As      core        0.06250   -0.18750     0.06250
As      core        0.06250    0.06250    -0.18750
As      core       -0.06250    0.18750     0.06250
As      core       -0.06250    0.06250     0.18750
As      core        0.18750   -0.06250     0.06250
As      core        0.06250   -0.06250     0.18750
As      core        0.18750    0.06250    -0.06250
As      core        0.06250    0.18750    -0.06250
Ga      core       -0.25000    0.00000     0.00000
Ga      core        0.00000   -0.25000     0.00000
Ga      core        0.00000    0.00000    -0.25000
Ga      core        0.00000    0.00000     0.25000
Ga      core        0.00000    0.25000     0.00000
Ga      core        0.25000    0.00000     0.00000
As      core       -0.18750   -0.18750     0.06250
As      core       -0.18750    0.06250    -0.18750
As      core        0.06250   -0.18750    -0.18750
As      core       -0.06250   -0.18750     0.18750
As      core       -0.18750   -0.06250     0.18750
As      core       -0.06250    0.18750    -0.18750
As      core       -0.18750    0.18750    -0.06250
As      core        0.18750   -0.06250    -0.18750
As      core        0.18750   -0.18750    -0.06250
As      core        0.18750    0.18750     0.06250
As      core        0.18750    0.06250     0.18750
As      core        0.06250    0.18750     0.18750
Ga      core       -0.12500   -0.12500    -0.25000
Ga      core       -0.12500   -0.25000    -0.12500
Ga      core       -0.25000   -0.12500    -0.12500
Ga      core       -0.12500   -0.25000     0.12500
Ga      core       -0.25000   -0.12500     0.12500
Ga      core       -0.12500    0.12500    -0.25000
Ga      core       -0.25000    0.12500    -0.12500
Ga      core        0.12500   -0.12500    -0.25000
Ga      core        0.12500   -0.25000    -0.12500
Ga      core       -0.12500   -0.12500     0.25000
Ga      core       -0.25000    0.12500     0.12500
Ga      core       -0.12500    0.25000    -0.12500
Ga      core        0.12500   -0.25000     0.12500
Ga      core        0.12500    0.12500    -0.25000
Ga      core        0.25000   -0.12500    -0.12500
Ga      core       -0.12500    0.12500     0.25000
Ga      core       -0.12500    0.25000     0.12500
Ga      core        0.12500   -0.12500     0.25000
Ga      core        0.12500    0.25000    -0.12500
Ga      core        0.25000   -0.12500     0.12500
Ga      core        0.25000    0.12500    -0.12500
Ga      core        0.12500    0.12500     0.25000
Ga      core        0.12500    0.25000     0.12500
Ga      core        0.25000    0.12500     0.12500
As      core       -0.18750   -0.18750    -0.18750
As      core       -0.31250   -0.06250     0.06250
As      core       -0.31250    0.06250    -0.06250
As      core       -0.06250   -0.31250     0.06250
As      core       -0.06250    0.06250    -0.31250
As      core        0.06250   -0.31250    -0.06250
As      core        0.06250   -0.06250    -0.31250
As      core       -0.06250   -0.06250     0.31250
As      core       -0.18750    0.18750     0.18750
As      core       -0.06250    0.31250    -0.06250
As      core        0.18750   -0.18750     0.18750
As      core        0.18750    0.18750    -0.18750
As      core        0.31250   -0.06250    -0.06250
As      core        0.06250    0.06250     0.31250
As      core        0.06250    0.31250     0.06250
As      core        0.31250    0.06250     0.06250
Ga      core       -0.25000   -0.25000     0.00000
Ga      core       -0.25000    0.00000    -0.25000
Ga      core        0.00000   -0.25000    -0.25000
Ga      core       -0.25000    0.00000     0.25000
Ga      core       -0.25000    0.25000     0.00000
Ga      core        0.00000   -0.25000     0.25000
Ga      core        0.00000    0.25000    -0.25000
Ga      core        0.25000   -0.25000     0.00000
Ga      core        0.25000    0.00000    -0.25000
Ga      core        0.00000    0.25000     0.25000
Ga      core        0.25000    0.00000     0.25000
Ga      core        0.25000    0.25000     0.00000
As      core       -0.31250   -0.06250    -0.18750
As      core       -0.31250   -0.18750    -0.06250
As      core       -0.06250   -0.31250    -0.18750
As      core       -0.18750   -0.31250    -0.06250
As      core       -0.06250   -0.18750    -0.31250
As      core       -0.18750   -0.06250    -0.31250
As      core       -0.31250    0.18750     0.06250
As      core       -0.31250    0.06250     0.18750
As      core        0.18750   -0.31250     0.06250
As      core        0.06250   -0.31250     0.18750
As      core        0.18750    0.06250    -0.31250
As      core        0.06250    0.18750    -0.31250
As      core       -0.18750    0.06250     0.31250
As      core       -0.18750    0.31250     0.06250
As      core        0.06250   -0.18750     0.31250
As      core        0.06250    0.31250    -0.18750
As      core        0.31250   -0.18750     0.06250
As      core        0.31250    0.06250    -0.18750
As      core       -0.06250    0.18750     0.31250
As      core       -0.06250    0.31250     0.18750
As      core        0.18750   -0.06250     0.31250
As      core        0.18750    0.31250    -0.06250
As      core        0.31250   -0.06250     0.18750
As      core        0.31250    0.18750    -0.06250
Ga      core       -0.37500   -0.12500     0.00000
Ga      core       -0.37500    0.00000    -0.12500
Ga      core       -0.12500   -0.37500     0.00000
Ga      core       -0.12500    0.00000    -0.37500
Ga      core        0.00000   -0.37500    -0.12500
Ga      core        0.00000   -0.12500    -0.37500
Ga      core       -0.37500    0.12500     0.00000
Ga      core       -0.37500    0.00000     0.12500
Ga      core        0.12500   -0.37500     0.00000
Ga      core        0.00000   -0.37500     0.12500
Ga      core        0.12500    0.00000    -0.37500
Ga      core        0.00000    0.12500    -0.37500
Ga      core       -0.12500    0.00000     0.37500
Ga      core       -0.12500    0.37500     0.00000
Ga      core        0.00000   -0.12500     0.37500
Ga      core        0.00000    0.37500    -0.12500
Ga      core        0.37500   -0.12500     0.00000
Ga      core        0.37500    0.00000    -0.12500
Ga      core        0.12500    0.00000     0.37500
Ga      core        0.00000    0.12500     0.37500
Ga      core        0.12500    0.37500     0.00000
Ga      core        0.00000    0.37500     0.12500
Ga      core        0.37500    0.12500     0.00000
Ga      core        0.37500    0.00000     0.12500
As      core       -0.31250   -0.18750     0.18750
As      core       -0.31250    0.18750    -0.18750
As      core       -0.18750   -0.31250     0.18750
As      core       -0.18750    0.18750    -0.31250
As      core        0.18750   -0.31250    -0.18750
As      core        0.18750   -0.18750    -0.31250
As      core       -0.18750   -0.18750     0.31250
As      core       -0.18750    0.31250    -0.18750
As      core        0.31250   -0.18750    -0.18750
As      core        0.18750    0.18750     0.31250
As      core        0.18750    0.31250     0.18750
As      core        0.31250    0.18750     0.18750
Ga      core       -0.25000   -0.25000    -0.25000
Ga      core       -0.25000   -0.25000     0.25000
Ga      core       -0.25000    0.25000    -0.25000
Ga      core        0.25000   -0.25000    -0.25000
Ga      core       -0.25000    0.25000     0.25000
Ga      core        0.25000   -0.25000     0.25000
Ga      core        0.25000    0.25000    -0.25000
Ga      core        0.25000    0.25000     0.25000
As      core       -0.31250   -0.31250     0.06250
As      core       -0.43750   -0.06250    -0.06250
As      core       -0.31250    0.06250    -0.31250
As      core       -0.06250   -0.43750    -0.06250
As      core       -0.06250   -0.06250    -0.43750
As      core        0.06250   -0.31250    -0.31250
As      core       -0.43750    0.06250     0.06250
As      core        0.06250   -0.43750     0.06250
As      core        0.06250    0.06250    -0.43750
As      core       -0.31250   -0.06250     0.31250
As      core       -0.31250    0.31250    -0.06250
As      core       -0.06250   -0.31250     0.31250
As      core       -0.06250    0.31250    -0.31250
As      core        0.31250   -0.31250    -0.06250
As      core        0.31250   -0.06250    -0.31250
As      core       -0.06250    0.06250     0.43750
As      core       -0.06250    0.43750     0.06250
As      core        0.06250   -0.06250     0.43750
As      core        0.06250    0.43750    -0.06250
As      core        0.43750   -0.06250     0.06250
As      core        0.43750    0.06250    -0.06250
As      core        0.06250    0.31250     0.31250
As      core        0.31250    0.06250     0.31250
As      core        0.31250    0.31250     0.06250
Ga      core       -0.37500   -0.12500    -0.25000
Ga      core       -0.37500   -0.25000    -0.12500
Ga      core       -0.12500   -0.37500    -0.25000
Ga      core       -0.25000   -0.37500    -0.12500
Ga      core       -0.12500   -0.25000    -0.37500
Ga      core       -0.25000   -0.12500    -0.37500
Ga      core       -0.37500   -0.25000     0.12500
Ga      core       -0.37500    0.12500    -0.25000
Ga      core       -0.25000   -0.37500     0.12500
Ga      core       -0.25000    0.12500    -0.37500
Ga      core        0.12500   -0.37500    -0.25000
Ga      core        0.12500   -0.25000    -0.37500
Ga      core       -0.37500   -0.12500     0.25000
Ga      core       -0.37500    0.25000    -0.12500
Ga      core       -0.12500   -0.37500     0.25000
Ga      core       -0.12500    0.25000    -0.37500
Ga      core        0.25000   -0.37500    -0.12500
Ga      core        0.25000   -0.12500    -0.37500
Ga      core       -0.37500    0.12500     0.25000
Ga      core       -0.37500    0.25000     0.12500
Ga      core       -0.12500   -0.25000     0.37500
Ga      core       -0.25000   -0.12500     0.37500
Ga      core       -0.12500    0.37500    -0.25000
Ga      core       -0.25000    0.37500    -0.12500
Ga      core        0.12500   -0.37500     0.25000
Ga      core        0.12500    0.25000    -0.37500
Ga      core        0.25000   -0.37500     0.12500
Ga      core        0.37500   -0.12500    -0.25000
Ga      core        0.37500   -0.25000    -0.12500
Ga      core        0.25000    0.12500    -0.37500
Ga      core       -0.25000    0.12500     0.37500
Ga      core       -0.25000    0.37500     0.12500
Ga      core        0.12500   -0.25000     0.37500
Ga      core        0.12500    0.37500    -0.25000
Ga      core        0.37500   -0.25000     0.12500
Ga      core        0.37500    0.12500    -0.25000
Ga      core       -0.12500    0.37500     0.25000
Ga      core       -0.12500    0.25000     0.37500
Ga      core        0.37500   -0.12500     0.25000
Ga      core        0.25000   -0.12500     0.37500
Ga      core        0.37500    0.25000    -0.12500
Ga      core        0.25000    0.37500    -0.12500
Ga      core        0.12500    0.37500     0.25000
Ga      core        0.12500    0.25000     0.37500
Ga      core        0.37500    0.12500     0.25000
Ga      core        0.25000    0.12500     0.37500
Ga      core        0.37500    0.25000     0.12500
Ga      core        0.25000    0.37500     0.12500
As      core       -0.31250   -0.31250    -0.18750
As      core       -0.31250   -0.18750    -0.31250
As      core       -0.18750   -0.31250    -0.31250
As      core       -0.43750   -0.18750     0.06250
As      core       -0.43750    0.06250    -0.18750
As      core       -0.18750   -0.43750     0.06250
As      core       -0.18750    0.06250    -0.43750
As      core        0.06250   -0.43750    -0.18750
As      core        0.06250   -0.18750    -0.43750
As      core       -0.43750   -0.06250     0.18750
As      core       -0.43750    0.18750    -0.06250
As      core       -0.06250   -0.43750     0.18750
As      core       -0.06250    0.18750    -0.43750
As      core        0.18750   -0.43750    -0.06250
As      core        0.18750   -0.06250    -0.43750
As      core       -0.31250    0.18750     0.31250
As      core       -0.31250    0.31250     0.18750
As      core       -0.06250   -0.18750     0.43750
As      core       -0.18750   -0.06250     0.43750
As      core       -0.06250    0.43750    -0.18750
As      core       -0.18750    0.43750    -0.06250
As      core        0.18750   -0.31250     0.31250
As      core        0.18750    0.31250    -0.31250
As      core        0.31250   -0.31250     0.18750
As      core        0.43750   -0.06250    -0.18750
As      core        0.43750   -0.18750    -0.06250
As      core        0.31250    0.18750    -0.31250
As      core       -0.18750    0.31250     0.31250
As      core        0.31250   -0.18750     0.31250
As      core        0.31250    0.31250    -0.18750
As      core        0.18750    0.06250     0.43750
As      core        0.06250    0.18750     0.43750
As      core        0.18750    0.43750     0.06250
As      core        0.06250    0.43750     0.18750
As      core        0.43750    0.18750     0.06250
As      core        0.43750    0.06250     0.18750
Ga      core       -0.50000    0.00000     0.00000
Ga      core        0.00000   -0.50000     0.00000
Ga      core        0.00000    0.00000    -0.50000
As      core       -0.43750   -0.18750    -0.18750
As      core       -0.18750   -0.43750    -0.18750
As      core       -0.18750   -0.18750    -0.43750
As      core       -0.43750    0.18750     0.18750
As      core        0.18750   -0.43750     0.18750
As      core        0.18750    0.18750    -0.43750
As      core       -0.18750    0.18750     0.43750
As      core       -0.18750    0.43750     0.18750
As      core        0.18750   -0.18750     0.43750
As      core        0.18750    0.43750    -0.18750
As      core        0.43750   -0.18750     0.18750
As      core        0.43750    0.18750    -0.18750
Ga      core       -0.37500   -0.37500     0.00000
Ga      core       -0.50000   -0.12500    -0.12500
Ga      core       -0.37500    0.00000    -0.37500
Ga      core       -0.12500   -0.50000    -0.12500
Ga      core       -0.12500   -0.12500    -0.50000
Ga      core        0.00000   -0.37500    -0.37500
Ga      core       -0.50000   -0.12500     0.12500
Ga      core       -0.50000    0.12500    -0.12500
Ga      core       -0.12500   -0.50000     0.12500
Ga      core       -0.12500    0.12500    -0.50000
Ga      core        0.12500   -0.50000    -0.12500
Ga      core        0.12500   -0.12500    -0.50000
Ga      core       -0.50000    0.12500     0.12500
Ga      core        0.12500   -0.50000     0.12500
Ga      core        0.12500    0.12500    -0.50000
Ga      core       -0.37500    0.00000     0.37500
Ga      core       -0.37500    0.37500     0.00000
Ga      core        0.00000   -0.37500     0.37500
Ga      core        0.00000    0.37500    -0.37500
Ga      core        0.37500   -0.37500     0.00000
Ga      core        0.37500    0.00000    -0.37500
Ga      core        0.00000    0.37500     0.37500
Ga      core        0.37500    0.00000     0.37500
Ga      core        0.37500    0.37500     0.00000
As      core       -0.31250   -0.43750    -0.06250
As      core       -0.43750   -0.31250    -0.06250
As      core       -0.31250   -0.06250    -0.43750
As      core       -0.43750   -0.06250    -0.31250
As      core       -0.06250   -0.31250    -0.43750
As      core       -0.06250   -0.43750    -0.31250
As      core       -0.31250   -0.31250     0.31250
As      core       -0.31250    0.31250    -0.31250
As      core        0.31250   -0.31250    -0.31250
As      core       -0.43750    0.06250     0.31250
As      core       -0.43750    0.31250     0.06250
As      core        0.06250   -0.43750     0.31250
As      core        0.06250    0.31250    -0.43750
As      core        0.31250   -0.43750     0.06250
As      core        0.31250    0.06250    -0.43750
As      core       -0.31250    0.06250     0.43750
As      core       -0.31250    0.43750     0.06250
As      core        0.06250   -0.31250     0.43750
As      core        0.06250    0.43750    -0.31250
As      core        0.43750   -0.31250     0.06250
As      core        0.43750    0.06250    -0.31250
As      core       -0.06250    0.43750     0.31250
As      core       -0.06250    0.31250     0.43750
As      core        0.43750   -0.06250     0.31250
As      core        0.31250   -0.06250     0.43750
As      core        0.43750    0.31250    -0.06250
As      core        0.31250    0.43750    -0.06250
As      core        0.31250    0.31250     0.31250
Ga      core       -0.50000   -0.25000     0.00000
Ga      core       -0.50000    0.00000    -0.25000
Ga      core       -0.25000   -0.50000     0.00000
Ga      core       -0.25000    0.00000    -0.50000
Ga      core        0.00000   -0.50000    -0.25000
Ga      core        0.00000   -0.25000    -0.50000
Ga      core       -0.50000    0.00000     0.25000
Ga      core       -0.50000    0.25000     0.00000
Ga      core        0.00000   -0.50000     0.25000
Ga      core        0.00000    0.25000    -0.50000
Ga      core        0.25000   -0.50000     0.00000
Ga      core        0.25000    0.00000    -0.50000
As      core       -0.31250   -0.43750     0.18750
As      core       -0.43750   -0.31250     0.18750
As      core       -0.31250    0.18750    -0.43750
As      core       -0.43750    0.18750    -0.31250
As      core        0.18750   -0.31250    -0.43750
As      core        0.18750   -0.43750    -0.31250
As      core       -0.43750   -0.18750     0.31250
As      core       -0.43750    0.31250    -0.18750
As      core       -0.18750   -0.43750     0.31250
As      core       -0.18750    0.31250    -0.43750
As      core        0.31250   -0.43750    -0.18750
As      core        0.31250   -0.18750    -0.43750
As      core       -0.31250   -0.18750     0.43750
As      core       -0.31250    0.43750    -0.18750
As      core       -0.18750   -0.31250     0.43750
As      core       -0.18750    0.43750    -0.31250
As      core        0.43750   -0.31250    -0.18750
As      core        0.43750   -0.18750    -0.31250
As      core        0.18750    0.43750     0.31250
As      core        0.18750    0.31250     0.43750
As      core        0.43750    0.18750     0.31250
As      core        0.31250    0.18750     0.43750
As      core        0.43750    0.31250     0.18750
As      core        0.31250    0.43750     0.18750
Ga      core       -0.37500   -0.37500    -0.25000
Ga      core       -0.37500   -0.25000    -0.37500
Ga      core       -0.25000   -0.37500    -0.37500
Ga      core       -0.37500   -0.37500     0.25000
Ga      core       -0.37500    0.25000    -0.37500
Ga      core        0.25000   -0.37500    -0.37500
Ga      core       -0.37500   -0.25000     0.37500
Ga      core       -0.37500    0.37500    -0.25000
Ga      core       -0.25000   -0.37500     0.37500
Ga      core       -0.25000    0.37500    -0.37500
Ga      core        0.37500   -0.37500    -0.25000
Ga      core        0.37500   -0.25000    -0.37500
Ga      core       -0.37500    0.37500     0.25000
Ga      core       -0.37500    0.25000     0.37500
Ga      core        0.37500   -0.37500     0.25000
Ga      core        0.25000   -0.37500     0.37500
Ga      core        0.37500    0.25000    -0.37500
Ga      core        0.25000    0.37500    -0.37500
Ga      core       -0.25000    0.37500     0.37500
Ga      core        0.37500   -0.25000     0.37500
Ga      core        0.37500    0.37500    -0.25000
Ga      core        0.37500    0.37500     0.25000
Ga      core        0.37500    0.25000     0.37500
Ga      core        0.25000    0.37500     0.37500
Ga      core       -0.50000   -0.25000    -0.25000
Ga      core       -0.25000   -0.50000    -0.25000
Ga      core       -0.25000   -0.25000    -0.50000
Ga      core       -0.50000   -0.25000     0.25000
Ga      core       -0.50000    0.25000    -0.25000
Ga      core       -0.25000   -0.50000     0.25000
Ga      core       -0.25000    0.25000    -0.50000
Ga      core        0.25000   -0.50000    -0.25000
Ga      core        0.25000   -0.25000    -0.50000
Ga      core       -0.50000    0.25000     0.25000
Ga      core        0.25000   -0.50000     0.25000
Ga      core        0.25000    0.25000    -0.50000
As      core       -0.31250   -0.31250    -0.43750
As      core       -0.31250   -0.43750    -0.31250
As      core       -0.43750   -0.31250    -0.31250
As      core       -0.43750   -0.43750     0.06250
As      core       -0.43750    0.06250    -0.43750
As      core        0.06250   -0.43750    -0.43750
As      core       -0.43750   -0.06250     0.43750
As      core       -0.43750    0.43750    -0.06250
As      core       -0.06250   -0.43750     0.43750
As      core       -0.06250    0.43750    -0.43750
As      core        0.43750   -0.43750    -0.06250
As      core        0.43750   -0.06250    -0.43750
As      core       -0.43750    0.31250     0.31250
As      core        0.31250   -0.43750     0.31250
As      core        0.31250    0.31250    -0.43750
As      core       -0.31250    0.43750     0.31250
As      core       -0.31250    0.31250     0.43750
As      core        0.43750   -0.31250     0.31250
As      core        0.31250   -0.31250     0.43750
As      core        0.43750    0.31250    -0.31250
As      core        0.31250    0.43750    -0.31250
As      core        0.06250    0.43750     0.43750
As      core        0.43750    0.06250     0.43750
As      core        0.43750    0.43750     0.06250
Ga      core       -0.37500   -0.50000    -0.12500
Ga      core       -0.50000   -0.37500    -0.12500
Ga      core       -0.37500   -0.12500    -0.50000
Ga      core       -0.50000   -0.12500    -0.37500
Ga      core       -0.12500   -0.37500    -0.50000
Ga      core       -0.12500   -0.50000    -0.37500
Ga      core       -0.37500   -0.50000     0.12500
Ga      core       -0.50000   -0.37500     0.12500
Ga      core       -0.37500    0.12500    -0.50000
Ga      core       -0.50000    0.12500    -0.37500
Ga      core        0.12500   -0.37500    -0.50000
Ga      core        0.12500   -0.50000    -0.37500
Ga      core       -0.50000   -0.12500     0.37500
Ga      core       -0.50000    0.37500    -0.12500
Ga      core       -0.12500   -0.50000     0.37500
Ga      core       -0.12500    0.37500    -0.50000
Ga      core        0.37500   -0.50000    -0.12500
Ga      core        0.37500   -0.12500    -0.50000
Ga      core       -0.50000    0.12500     0.37500
Ga      core       -0.50000    0.37500     0.12500
Ga      core        0.12500   -0.50000     0.37500
Ga      core        0.12500    0.37500    -0.50000
Ga      core        0.37500   -0.50000     0.12500
Ga      core        0.37500    0.12500    -0.50000
As      core       -0.43750   -0.43750    -0.18750
As      core       -0.43750   -0.18750    -0.43750
As      core       -0.18750   -0.43750    -0.43750
As      core       -0.43750    0.18750     0.43750
As      core       -0.43750    0.43750     0.18750
As      core        0.18750   -0.43750     0.43750
As      core        0.18750    0.43750    -0.43750
As      core        0.43750   -0.43750     0.18750
As      core        0.43750    0.18750    -0.43750
As      core       -0.18750    0.43750     0.43750
As      core        0.43750   -0.18750     0.43750
As      core        0.43750    0.43750    -0.18750
As      core       -0.43750   -0.43750     0.31250
As      core       -0.43750    0.31250    -0.43750
As      core        0.31250   -0.43750    -0.43750
As      core       -0.31250   -0.43750     0.43750
As      core       -0.43750   -0.31250     0.43750
As      core       -0.31250    0.43750    -0.43750
As      core       -0.43750    0.43750    -0.31250
As      core        0.43750   -0.31250    -0.43750
As      core        0.43750   -0.43750    -0.31250
As      core        0.43750    0.43750     0.31250
As      core        0.43750    0.31250     0.43750
As      core        0.31250    0.43750     0.43750
Ga      core       -0.50000   -0.50000     0.00000
Ga      core       -0.50000    0.00000    -0.50000
Ga      core        0.00000   -0.50000    -0.50000
Ga      core       -0.37500   -0.37500    -0.50000
Ga      core       -0.37500   -0.50000    -0.37500
Ga      core       -0.50000   -0.37500    -0.37500
Ga      core       -0.37500   -0.50000     0.37500
Ga      core       -0.50000   -0.37500     0.37500
Ga      core       -0.37500    0.37500    -0.50000
Ga      core       -0.50000    0.37500    -0.37500
Ga      core        0.37500   -0.37500    -0.50000
Ga      core        0.37500   -0.50000    -0.37500
Ga      core       -0.50000    0.37500     0.37500
Ga      core        0.37500   -0.50000     0.37500
Ga      core        0.37500    0.37500    -0.50000
Ga      core       -0.50000   -0.50000    -0.25000
Ga      core       -0.50000   -0.25000    -0.50000
Ga      core       -0.25000   -0.50000    -0.50000
Ga      core       -0.50000   -0.50000     0.25000
Ga      core       -0.50000    0.25000    -0.50000
Ga      core        0.25000   -0.50000    -0.50000
As      core       -0.43750   -0.43750    -0.43750
As      core       -0.43750    0.43750     0.43750
As      core        0.43750   -0.43750     0.43750
As      core        0.43750    0.43750    -0.43750
Ga      core       -0.50000   -0.50000    -0.50000
